Features/ForMiniZinc/benchmark_puzzles/benchmarks4x4/65/puzzle15.dzn
S = 4;
start = [|0,0,0,4,0,0,0,0,0,8,0,5,0,0,0,12|
3,5,0,0,0,14,0,7,0,0,0,4,0,0,0,0|
9,0,0,0,0,0,1,12,0,0,3,0,0,0,0,0|
0,0,6,8,0,0,10,0,0,0,0,0,0,0,5,0|
0,6,2,10,0,0,12,0,5,16,13,0,0,0,0,0|
7,11,0,0,10,0,5,0,0,6,12,0,3,15,0,0|
4,0,0,14,0,0,0,16,0,2,8,0,0,0,0,5|
0,12,0,0,0,11,0,2,0,0,4,0,0,0,7,16|
12,0,4,15,9,0,0,0,14,0,0,0,16,3,13,7|
0,13,0,3,0,0,0,0,15,0,0,0,0,0,0,0|
10,14,0,0,12,16,0,4,0,0,5,0,0,11,0,6|
0,0,0,0,15,13,0,11,0,12,2,7,0,10,0,0|
15,0,8,0,2,0,0,0,0,0,0,0,0,0,0,3|
0,3,13,0,0,0,16,6,0,15,0,0,0,0,0,0|
0,0,5,0,0,0,0,10,2,0,0,13,8,0,6,0|
0,1,0,11,5,0,0,0,0,3,0,0,0,0,15,9|];